     Program PWSCF v.7.4.1 starts on  2Jun2025 at 20:10: 3

     Waiting for input...
     Reading input from standard input

     Current dimensions of program PWSCF are:
     Max number of different atomic species (ntypx) = 10
     Max number of k-points (npk) =  40000
     Max angular momentum in pseudopotentials (lmaxx) =  4
     file Mo.pbe-spn-kjpaw_psl.1.0.0.UPF: wavefunction(s)  4S 4D renormalized
     file Se.pbe-n-kjpaw_psl.1.0.0.UPF: wavefunction(s)  4S renormalized
     Message from routine setup:
     using ibrav=0 with symmetry is DISCOURAGED, use correct ibrav instead

     Subspace diagonalization in iterative solution of the eigenvalue problem:
     a serial algorithm will be used

     Using Slab Decomposition

     Title:
     SCF Calculation for Pristine MoSe2 Unitcell

     bravais-lattice index     =            0
     lattice parameter (alat)  =       6.2954  a.u.
     unit-cell volume          =     991.7536 (a.u.)^3
     number of atoms/cell      =            3
     number of atomic types    =            2
     number of electrons       =        26.00
     number of Kohn-Sham states=           17
     kinetic-energy cutoff     =      70.0000  Ry
     charge density cutoff     =     700.0000  Ry
     scf convergence threshold =      1.0E-12
     mixing beta               =       0.4000
     number of iterations used =            8  plain     mixing
     Exchange-correlation= SLA  PW   PBX  PBC
                           (   1   4   3   4   0   0   0)

     celldm(1)=   6.295389  celldm(2)=   0.000000  celldm(3)=   0.000000
     celldm(4)=   0.000000  celldm(5)=   0.000000  celldm(6)=   0.000000

     crystal axes: (cart. coord. in units of alat)
               a(1) = (   1.000000   0.000000   0.000000 )
               a(2) = (  -0.500000   0.866025   0.000000 )
               a(3) = (   0.000000   0.000000   4.589922 )

     reciprocal axes: (cart. coord. in units 2 pi/alat)
               b(1) = (  1.000000  0.577350 -0.000000 )
               b(2) = (  0.000000  1.154701  0.000000 )
               b(3) = (  0.000000 -0.000000  0.217869 )

     PseudoPot. # 1 for Mo read from file:
     ./pseudo/Mo.pbe-spn-kjpaw_psl.1.0.0.UPF
     MD5 check sum: 4396e0c640fcce5c25f020efccf1ab12
     Pseudo is Projector augmented-wave + core cor, Zval = 14.0
     Generated using &quot;atomic&quot; code by A. Dal Corso  v.6.3
     Shape of augmentation charge: PSQ
     Using radial grid of 1229 points,  6 beta functions with:
                l(1) =   0
                l(2) =   0
                l(3) =   1
                l(4) =   1
                l(5) =   2
                l(6) =   2
     Q(r) pseudized with 0 coefficients

     PseudoPot. # 2 for Se read from file:
     ./pseudo/Se.pbe-n-kjpaw_psl.1.0.0.UPF
     MD5 check sum: 12232cb78b362a7b0fca8da9cb95fd5e
     Pseudo is Projector augmented-wave + core cor, Zval =  6.0
     Generated using &quot;atomic&quot; code by A. Dal Corso  v.6.3
     Shape of augmentation charge: PSQ
     Using radial grid of 1211 points,  4 beta functions with:
                l(1) =   0
                l(2) =   0
                l(3) =   1
                l(4) =   1
     Q(r) pseudized with 0 coefficients

     atomic species   valence    mass     pseudopotential
     Mo               14.00    95.96000     Mo( 1.00)
     Se                6.00    78.96000     Se( 1.00)

     12 Sym. Ops. (no inversion) found ( 6 have fractional translation)

                                    s                        frac. trans.

      isym =  1     identity

 cryst.   s( 1) = (     1          0          0      )
                  (     0          1          0      )
                  (     0          0          1      )

 cart.    s( 1) = (  1.0000000 -0.0000000  0.0000000 )
                  (  0.0000000  1.0000000  0.0000000 )
                  (  0.0000000  0.0000000  1.0000000 )

      isym =  2     180 deg rotation - cart. axis [0,1,0]

 cryst.   s( 2) = (    -1          0          0      )    f =( -0.0000000 )
                  (     1          1          0      )       (  0.0000000 )
                  (     0          0         -1      )       (  0.5000000 )

 cart.    s( 2) = ( -1.0000000 -0.0000000  0.0000000 )    f =( -0.0000000 )
                  (  0.0000000  1.0000000  0.0000000 )       (  0.0000000 )
                  (  0.0000000  0.0000000 -1.0000000 )       (  2.2949612 )

      isym =  3     120 deg rotation - cryst. axis [0,0,1]

[...]

      isym =  6     180 deg rotation - cryst. axis [2,1,0]

[...]

      isym =  7     inv. 180 deg rotation - cart. axis [0,0,1]

[...]

      isym =  8     inv. 180 deg rotation - cart. axis [1,0,0]

 cryst.   s( 8) = (    -1          0          0      )
                  (     1          1          0      )
                  (     0          0          1      )

 cart.    s( 8) = ( -1.0000000 -0.0000000  0.0000000 )
                  (  0.0000000  1.0000000  0.0000000 )
                  (  0.0000000  0.0000000  1.0000000 )

      isym =  9     inv.  60 deg rotation - cryst. axis [0,0,1]

 cryst.   s( 9) = (    -1         -1          0      )    f =( -0.0000000 )
                  (     1          0          0      )       ( -0.0000000 )
                  (     0          0         -1      )       (  0.5000000 )

 cart.    s( 9) = ( -0.5000000  0.8660254  0.0000000 )    f =(  0.0000000 )
                  ( -0.8660254 -0.5000000  0.0000000 )       ( -0.0000000 )
                  (  0.0000000  0.0000000 -1.0000000 )       (  2.2949612 )

[...]

 cryst.   s(10) = (     0          1          0      )    f =( -0.0000000 )
                  (    -1         -1          0      )       ( -0.0000000 )
                  (     0          0         -1      )       (  0.5000000 )

 cart.    s(10) = ( -0.5000000 -0.8660254  0.0000000 )    f =( -0.0000000 )
                  (  0.8660254 -0.5000000  0.0000000 )       ( -0.0000000 )
                  (  0.0000000  0.0000000 -1.0000000 )       (  2.2949612 )

[...]

 cryst.   s(11) = (     1          1          0      )
                  (     0         -1          0      )
                  (     0          0          1      )

 cart.    s(11) = (  0.5000000  0.8660254  0.0000000 )
                  (  0.8660254 -0.5000000  0.0000000 )
                  (  0.0000000  0.0000000  1.0000000 )

      isym = 12     inv. 180 deg rotation - cryst. axis [1,1,0]

 cryst.   s(12) = (     0         -1          0      )
                  (    -1          0          0      )
                  (     0          0          1      )

 cart.    s(12) = (  0.5000000 -0.8660254  0.0000000 )
                  ( -0.8660254 -0.5000000  0.0000000 )
                  (  0.0000000  0.0000000  1.0000000 )

   Cartesian axes

     site n.     atom                  positions (alat units)
         1        Mo     tau(   1) = (  -0.0000000   0.5773503   1.1474806  )
         2        Se     tau(   2) = (   0.5000000   0.2886751   2.0654206  )
         3        Se     tau(   3) = (   0.5000000   0.2886751   0.2295407  )

   Crystallographic axes

     site n.     atom                  positions (cryst. coord.)
         1        Mo     tau(   1) = (  0.3333333  0.6666667  0.2500000  )
         2        Se     tau(   2) = (  0.6666667  0.3333333  0.4499903  )
         3        Se     tau(   3) = (  0.6666667  0.3333333  0.0500097  )

     number of k points=   132  Gaussian smearing, width (Ry)=  0.0100
                       cart. coord. in units 2pi/alat
        k(    1) = (   0.0000000   0.0000000   0.0000000), wk =   0.0010000
        k(    2) = (   0.0000000   0.0000000   0.0435737), wk =   0.0020000
        k(    3) = (   0.0000000   0.0000000   0.0871474), wk =   0.0020000
        k(    4) = (   0.0000000   0.0577350   0.0000000), wk =   0.0060000
        k(    5) = (   0.0000000   0.0577350   0.0435737), wk =   0.0120000
        k(    6) = (   0.0000000   0.0577350   0.0871474), wk =   0.0120000
        k(    7) = (   0.0000000   0.1154701   0.0000000), wk =   0.0060000
        k(    8) = (   0.0000000   0.1154701   0.0435737), wk =   0.0120000
        k(    9) = (   0.0000000   0.1154701   0.0871474), wk =   0.0120000
        k(   10) = (   0.0000000   0.1732051   0.0000000), wk =   0.0060000
        k(   11) = (   0.0000000   0.1732051   0.0435737), wk =   0.0120000
        k(   12) = (   0.0000000   0.1732051   0.0871474), wk =   0.0120000
        k(   13) = (   0.0000000   0.2309401   0.0000000), wk =   0.0060000
        k(   14) = (   0.0000000   0.2309401   0.0435737), wk =   0.0120000
        k(   15) = (   0.0000000   0.2309401   0.0871474), wk =   0.0120000
        k(   16) = (   0.0000000   0.2886751   0.0000000), wk =   0.0060000
        k(   17) = (   0.0000000   0.2886751   0.0435737), wk =   0.0120000
        k(   18) = (   0.0000000   0.2886751   0.0871474), wk =   0.0120000
        k(   19) = (   0.0000000   0.3464102   0.0000000), wk =   0.0060000
        k(   20) = (   0.0000000   0.3464102   0.0435737), wk =   0.0120000
        k(   21) = (   0.0000000   0.3464102   0.0871474), wk =   0.0120000
        k(   22) = (   0.0000000   0.4041452   0.0000000), wk =   0.0060000
        k(   23) = (   0.0000000   0.4041452   0.0435737), wk =   0.0120000
        k(   24) = (   0.0000000   0.4041452   0.0871474), wk =   0.0120000
        k(   25) = (   0.0000000   0.4618802   0.0000000), wk =   0.0060000
        k(   26) = (   0.0000000   0.4618802   0.0435737), wk =   0.0120000
        k(   27) = (   0.0000000   0.4618802   0.0871474), wk =   0.0120000
        k(   28) = (   0.0000000   0.5196152   0.0000000), wk =   0.0060000
        k(   29) = (   0.0000000   0.5196152   0.0435737), wk =   0.0120000
        k(   30) = (   0.0000000   0.5196152   0.0871474), wk =   0.0120000
        k(   31) = (   0.0000000  -0.5773503   0.0000000), wk =   0.0030000
        k(   32) = (   0.0000000  -0.5773503   0.0435737), wk =   0.0060000
        k(   33) = (   0.0000000  -0.5773503   0.0871474), wk =   0.0060000
        k(   34) = (   0.0500000   0.0866025   0.0000000), wk =   0.0060000
        k(   35) = (   0.0500000   0.0866025   0.0435737), wk =   0.0120000
        k(   36) = (   0.0500000   0.0866025   0.0871474), wk =   0.0120000
        k(   37) = (   0.0500000   0.1443376   0.0000000), wk =   0.0120000
        k(   38) = (   0.0500000   0.1443376   0.0435737), wk =   0.0240000
        k(   39) = (   0.0500000   0.1443376   0.0871474), wk =   0.0240000
        k(   40) = (   0.0500000   0.2020726   0.0000000), wk =   0.0120000
        k(   41) = (   0.0500000   0.2020726   0.0435737), wk =   0.0240000
        k(   42) = (   0.0500000   0.2020726   0.0871474), wk =   0.0240000
        k(   43) = (   0.0500000   0.2598076   0.0000000), wk =   0.0120000
        k(   44) = (   0.0500000   0.2598076   0.0435737), wk =   0.0240000
        k(   45) = (   0.0500000   0.2598076   0.0871474), wk =   0.0240000
        k(   46) = (   0.0500000   0.3175426   0.0000000), wk =   0.0120000
        k(   47) = (   0.0500000   0.3175426   0.0435737), wk =   0.0240000
        k(   48) = (   0.0500000   0.3175426   0.0871474), wk =   0.0240000
        k(   49) = (   0.0500000   0.3752777   0.0000000), wk =   0.0120000
        k(   50) = (   0.0500000   0.3752777   0.0435737), wk =   0.0240000
        k(   51) = (   0.0500000   0.3752777   0.0871474), wk =   0.0240000
        k(   52) = (   0.0500000   0.4330127   0.0000000), wk =   0.0120000
        k(   53) = (   0.0500000   0.4330127   0.0435737), wk =   0.0240000
        k(   54) = (   0.0500000   0.4330127   0.0871474), wk =   0.0240000
        k(   55) = (   0.0500000   0.4907477   0.0000000), wk =   0.0120000
        k(   56) = (   0.0500000   0.4907477   0.0435737), wk =   0.0240000
        k(   57) = (   0.0500000   0.4907477   0.0871474), wk =   0.0240000
        k(   58) = (   0.0500000   0.5484828   0.0000000), wk =   0.0120000
        k(   59) = (   0.0500000   0.5484828   0.0435737), wk =   0.0240000
        k(   60) = (   0.0500000   0.5484828   0.0871474), wk =   0.0240000
[...]
        k(  118) = (   0.2500000   0.4330127   0.0000000), wk =   0.0060000
        k(  119) = (   0.2500000   0.4330127   0.0435737), wk =   0.0120000
        k(  120) = (   0.2500000   0.4330127   0.0871474), wk =   0.0120000
        k(  121) = (   0.2500000   0.4907477   0.0000000), wk =   0.0120000
        k(  122) = (   0.2500000   0.4907477   0.0435737), wk =   0.0240000
        k(  123) = (   0.2500000   0.4907477   0.0871474), wk =   0.0240000
        k(  124) = (   0.2500000   0.5484828   0.0000000), wk =   0.0120000
        k(  125) = (   0.2500000   0.5484828   0.0435737), wk =   0.0240000
        k(  126) = (   0.2500000   0.5484828   0.0871474), wk =   0.0240000
        k(  127) = (   0.3000000   0.5196152   0.0000000), wk =   0.0060000
        k(  128) = (   0.3000000   0.5196152   0.0435737), wk =   0.0120000
        k(  129) = (   0.3000000   0.5196152   0.0871474), wk =   0.0120000
        k(  130) = (   0.3000000   0.5773503   0.0000000), wk =   0.0060000
        k(  131) = (   0.3000000   0.5773503   0.0435737), wk =   0.0120000
        k(  132) = (   0.3000000   0.5773503   0.0871474), wk =   0.0120000

                       cryst. coord.
        k(    1) = (   0.0000000   0.0000000   0.0000000), wk =   0.0010000
        k(    2) = (   0.0000000   0.0000000   0.2000000), wk =   0.0020000
        k(    3) = (   0.0000000   0.0000000   0.4000000), wk =   0.0020000
        k(    4) = (   0.0000000   0.0500000   0.0000000), wk =   0.0060000
        k(    5) = (   0.0000000   0.0500000   0.2000000), wk =   0.0120000
        k(    6) = (   0.0000000   0.0500000   0.4000000), wk =   0.0120000
        k(    7) = (   0.0000000   0.1000000   0.0000000), wk =   0.0060000
        k(    8) = (   0.0000000   0.1000000   0.2000000), wk =   0.0120000
        k(    9) = (   0.0000000   0.1000000   0.4000000), wk =   0.0120000
        k(   10) = (   0.0000000   0.1500000   0.0000000), wk =   0.0060000
        k(   11) = (   0.0000000   0.1500000   0.2000000), wk =   0.0120000
        k(   12) = (   0.0000000   0.1500000   0.4000000), wk =   0.0120000
        k(   13) = (   0.0000000   0.2000000   0.0000000), wk =   0.0060000
        k(   14) = (   0.0000000   0.2000000   0.2000000), wk =   0.0120000
        k(   15) = (   0.0000000   0.2000000   0.4000000), wk =   0.0120000
        k(   16) = (   0.0000000   0.2500000   0.0000000), wk =   0.0060000
        k(   17) = (   0.0000000   0.2500000   0.2000000), wk =   0.0120000
        k(   18) = (   0.0000000   0.2500000   0.4000000), wk =   0.0120000
        k(   19) = (   0.0000000   0.3000000   0.0000000), wk =   0.0060000
        k(   20) = (   0.0000000   0.3000000   0.2000000), wk =   0.0120000
        k(   21) = (   0.0000000   0.3000000   0.4000000), wk =   0.0120000
        k(   22) = (   0.0000000   0.3500000   0.0000000), wk =   0.0060000
        k(   23) = (   0.0000000   0.3500000   0.2000000), wk =   0.0120000
        k(   24) = (   0.0000000   0.3500000   0.4000000), wk =   0.0120000
        k(   25) = (   0.0000000   0.4000000   0.0000000), wk =   0.0060000
        k(   26) = (   0.0000000   0.4000000   0.2000000), wk =   0.0120000
        k(   27) = (   0.0000000   0.4000000   0.4000000), wk =   0.0120000
        k(   28) = (   0.0000000   0.4500000   0.0000000), wk =   0.0060000
        k(   29) = (   0.0000000   0.4500000   0.2000000), wk =   0.0120000
        k(   30) = (   0.0000000   0.4500000   0.4000000), wk =   0.0120000
        k(   31) = (   0.0000000  -0.5000000   0.0000000), wk =   0.0030000
        k(   32) = (   0.0000000  -0.5000000   0.2000000), wk =   0.0060000
        k(   33) = (   0.0000000  -0.5000000   0.4000000), wk =   0.0060000
        k(   34) = (   0.0500000   0.0500000   0.0000000), wk =   0.0060000
        k(   35) = (   0.0500000   0.0500000   0.2000000), wk =   0.0120000
        k(   36) = (   0.0500000   0.0500000   0.4000000), wk =   0.0120000
        k(   37) = (   0.0500000   0.1000000   0.0000000), wk =   0.0120000
        k(   38) = (   0.0500000   0.1000000   0.2000000), wk =   0.0240000
        k(   39) = (   0.0500000   0.1000000   0.4000000), wk =   0.0240000
        k(   40) = (   0.0500000   0.1500000   0.0000000), wk =   0.0120000
        k(   41) = (   0.0500000   0.1500000   0.2000000), wk =   0.0240000
        k(   42) = (   0.0500000   0.1500000   0.4000000), wk =   0.0240000
        k(   43) = (   0.0500000   0.2000000   0.0000000), wk =   0.0120000
        k(   44) = (   0.0500000   0.2000000   0.2000000), wk =   0.0240000
        k(   45) = (   0.0500000   0.2000000   0.4000000), wk =   0.0240000
        k(   46) = (   0.0500000   0.2500000   0.0000000), wk =   0.0120000
        k(   47) = (   0.0500000   0.2500000   0.2000000), wk =   0.0240000
        k(   48) = (   0.0500000   0.2500000   0.4000000), wk =   0.0240000
        k(   49) = (   0.0500000   0.3000000   0.0000000), wk =   0.0120000
        k(   50) = (   0.0500000   0.3000000   0.2000000), wk =   0.0240000
        k(   51) = (   0.0500000   0.3000000   0.4000000), wk =   0.0240000
        k(   52) = (   0.0500000   0.3500000   0.0000000), wk =   0.0120000
        k(   53) = (   0.0500000   0.3500000   0.2000000), wk =   0.0240000
        k(   54) = (   0.0500000   0.3500000   0.4000000), wk =   0.0240000
        k(   55) = (   0.0500000   0.4000000   0.0000000), wk =   0.0120000
        k(   56) = (   0.0500000   0.4000000   0.2000000), wk =   0.0240000
        k(   57) = (   0.0500000   0.4000000   0.4000000), wk =   0.0240000
        k(   58) = (   0.0500000   0.4500000   0.0000000), wk =   0.0120000
        k(   59) = (   0.0500000   0.4500000   0.2000000), wk =   0.0240000
        k(   60) = (   0.0500000   0.4500000   0.4000000), wk =   0.0240000
[...]
        k(  118) = (   0.2500000   0.2500000   0.0000000), wk =   0.0060000
        k(  119) = (   0.2500000   0.2500000   0.2000000), wk =   0.0120000
        k(  120) = (   0.2500000   0.2500000   0.4000000), wk =   0.0120000
        k(  121) = (   0.2500000   0.3000000   0.0000000), wk =   0.0120000
        k(  122) = (   0.2500000   0.3000000   0.2000000), wk =   0.0240000
        k(  123) = (   0.2500000   0.3000000   0.4000000), wk =   0.0240000
        k(  124) = (   0.2500000   0.3500000   0.0000000), wk =   0.0120000
        k(  125) = (   0.2500000   0.3500000   0.2000000), wk =   0.0240000
        k(  126) = (   0.2500000   0.3500000   0.4000000), wk =   0.0240000
        k(  127) = (   0.3000000   0.3000000   0.0000000), wk =   0.0060000
        k(  128) = (   0.3000000   0.3000000   0.2000000), wk =   0.0120000
        k(  129) = (   0.3000000   0.3000000   0.4000000), wk =   0.0120000
        k(  130) = (   0.3000000   0.3500000   0.0000000), wk =   0.0060000
        k(  131) = (   0.3000000   0.3500000   0.2000000), wk =   0.0120000
        k(  132) = (   0.3000000   0.3500000   0.4000000), wk =   0.0120000

     Initial potential from superposition of free atoms

     starting charge      25.9990, renormalised to      26.0000

     negative rho (up, down):  1.113E-08 0.000E+00
     Starting wfcs are   18 randomized atomic wfcs
     Checking if some PAW data can be deallocated...

     Self-consistent Calculation

     iteration #  1     ecut=    70.00 Ry     beta= 0.40
     Davidson diagonalization with overlap

     ethr =  1.00E-02,  avg # of iterations =  3.1

     total energy              =    -734.81826952 Ry
     estimated scf accuracy    <      11.69409549 Ry

[...]

     c_bands:  2 eigenvalues not converged
     c_bands:  1 eigenvalues not converged
     ethr =  1.00E-02,  avg # of iterations = 14.0

[...]

     negative rho (up, down):  4.241E-03 0.000E+00

[...]

     negative rho (up, down):  3.277E-04 0.000E+00

[...]

     total energy              =    -741.87022565 Ry
     estimated scf accuracy    <          2.0E-12 Ry

     iteration # 34     ecut=    70.00 Ry     beta= 0.40
     Davidson diagonalization with overlap

     ethr =  1.00E-13,  avg # of iterations =  2.7

     End of self-consistent calculation

          k = 0.0000 0.0000 0.0000 (  9875 PWs)   bands (ev):

   -61.9174 -36.1408 -35.6987 -35.6987 -13.7443 -13.7290  -4.4580  -2.8999
    -2.4653  -0.7653  -0.7653  -0.3096   0.2021   0.2021   0.3217   1.0003
     1.0003

     occupation numbers
     1.0000   1.0000   1.0000   1.0000   1.0000   1.0000   1.0000   1.0000
     1.0000   0.9997   0.9997   0.1022   0.0000   0.0000   0.0000   0.0000
     0.0000

[...]

          k = 0.3000 0.5774 0.0871 (  9811 PWs)   bands (ev):

   -61.8989 -36.1165 -35.8321 -35.8136 -12.1143 -12.1118  -3.5960  -3.5389
    -3.1015  -3.0806  -1.8903  -1.7291  -1.0309  -0.8849  -0.2059  -0.0079
     0.3429

     occupation numbers
     1.0000   1.0000   1.0000   1.0000   1.0000   1.0000   1.0000   1.0000
     1.0000   1.0000   1.0000   1.0000   1.0000   1.0000   0.0095   0.0000
     0.0000

     the Fermi energy is    -0.4317 ev

!    total energy              =    -741.87022565 Ry
     total all-electron energy =    -17817.721768 Ry
     estimated scf accuracy    <          1.4E-13 Ry
     smearing contrib. (-TS)   =      -0.00405671 Ry
     internal energy E=F+TS    =    -741.86616894 Ry

     The total energy is F=E-TS. E is the sum of the following terms:
     one-electron contribution =    -707.01384257 Ry
     hartree contribution      =     356.34112492 Ry
     xc contribution           =     -31.56272857 Ry
     ewald contribution        =     206.60126102 Ry
     one-center paw contrib.   =    -566.23198375 Ry
      -> PAW hartree energy AE =      99.54469477 Ry
      -> PAW hartree energy PS =     -98.92960712 Ry
      -> PAW xc energy AE      =    -594.82817121 Ry
      -> PAW xc energy PS      =      27.98109981 Ry
      -> total E_H with PAW    =     356.95621258 Ry
      -> total E_XC with PAW   =    -598.40979997 Ry

     convergence has been achieved in  34 iterations

     Forces acting on atoms (cartesian axes, Ry/au):

     atom    1 type  1   force =     0.00000000   -0.00000000    0.00000000
     atom    2 type  2   force =     0.00000000   -0.00000000   -0.15855822
     atom    3 type  2   force =     0.00000000   -0.00000000    0.15855822
     The non-local contrib.  to forces
     atom    1 type  1   force =     0.00000000    0.00000000    0.00000000
     atom    2 type  2   force =    -0.00000000   -0.00000000   -0.25538403
     atom    3 type  2   force =     0.00000000   -0.00000000    0.25538403
     The ionic contribution  to forces
     atom    1 type  1   force =     0.00000001   -0.00000001   -0.00000006
     atom    2 type  2   force =    -0.00000001    0.00000000   43.81844944
     atom    3 type  2   force =    -0.00000001    0.00000000  -43.81844938
     The local contribution  to forces
     atom    1 type  1   force =    -0.00000001   -0.00000423    0.00000001
     atom    2 type  2   force =     0.00000008    0.00000002  -43.73247234
     atom    3 type  2   force =     0.00000008    0.00000002   43.73247058
     The core correction contribution to forces
     atom    1 type  1   force =     0.00000000    0.00000003   -0.00000000
     atom    2 type  2   force =     0.00000001    0.00000000    0.01084874
     atom    3 type  2   force =     0.00000001    0.00000000   -0.01084872
     The Hubbard contrib.    to forces
     atom    1 type  1   force =     0.00000000    0.00000000    0.00000000
     atom    2 type  2   force =     0.00000000    0.00000000    0.00000000
     atom    3 type  2   force =     0.00000000    0.00000000    0.00000000
     The SCF correction term to forces
     atom    1 type  1   force =    -0.00000000   -0.00000000    0.00000000
     atom    2 type  2   force =    -0.00000000   -0.00000000   -0.00000086
     atom    3 type  2   force =    -0.00000000   -0.00000000    0.00000086

     Total force =     0.224235     Total SCF correction =     0.000001

     Computing stress (Cartesian axis) and pressure

          total   stress  (Ry/bohr**3)                   (kbar)     P=      -76.86
  -0.00049315  -0.00000000   0.00000000          -72.55       -0.00        0.00
  -0.00000000  -0.00049315   0.00000000           -0.00      -72.55        0.00
   0.00000000   0.00000000  -0.00058106            0.00        0.00      -85.48

     kinetic stress (kbar)   6504.41      0.00      0.00
                                0.00   6504.41      0.00
                                0.00      0.00   6286.72

     local   stress (kbar)-101997.38     -0.00      0.00
                               -0.00-101997.38      0.00
                                0.00      0.00  96605.93

     nonloc. stress (kbar)   2779.30      0.00      0.00
                                0.00   2779.30     -0.00
                                0.00     -0.00   2845.72

     hartree stress (kbar)  49923.72     -0.00     -0.00
                               -0.00  49923.72      0.00
                               -0.00      0.00 -46991.98

     exc-cor stress (kbar)    -71.19     -0.00      0.00
                               -0.00    -71.19      0.00
                                0.00      0.00    -83.51

     corecor stress (kbar)  -1273.84      0.00     -0.00
                                0.00  -1273.84     -0.00
                               -0.00     -0.00  -1268.28

     ewald   stress (kbar)  44062.44      0.00      0.00
                                0.00  44062.44      0.00
                                0.00      0.00 -57480.07

     hubbard stress (kbar)      0.00      0.00      0.00
                                0.00      0.00      0.00
                                0.00      0.00      0.00

     DFT-D   stress (kbar)      0.00      0.00      0.00
                                0.00      0.00      0.00
                                0.00      0.00      0.00

     XDM     stress (kbar)      0.00      0.00      0.00
                                0.00      0.00      0.00
                                0.00      0.00      0.00

     dft-nl  stress (kbar)      0.00      0.00      0.00
                                0.00      0.00      0.00
                                0.00      0.00      0.00

     TS-vdW  stress (kbar)      0.00      0.00      0.00
                                0.00      0.00      0.00
                                0.00      0.00      0.00

     MDB     stress (kbar)      0.00      0.00      0.00
                                0.00      0.00      0.00
                                0.00      0.00      0.00

     3D-RISM stress (kbar)      0.00      0.00      0.00
                                0.00      0.00      0.00
                                0.00      0.00      0.00

     Writing all to output data dir ./out/unitcell.save/ :
     XML data file, charge density, pseudopotentials, collected wavefunctions

     General routines

     Parallel routines

     PAW routines

   This run was terminated on:  20:42: 4   2Jun2025

   JOB DONE.