     Program PWSCF v.7.4.1 starts on  2Jun2025 at 20: 4:25

     Waiting for input...
     Reading input from standard input
Warning: card &CELL ignored
Warning: card     CELL_DYNAMICS = 'BFGS'	 ignored
Warning: card / ignored

     Current dimensions of program PWSCF are:
     Max number of different atomic species (ntypx) = 10
     Max number of k-points (npk) =  40000
     Max angular momentum in pseudopotentials (lmaxx) =  4
     file Mo.pbe-spn-kjpaw_psl.1.0.0.UPF: wavefunction(s)  4S 4D renormalized
     file Se.pbe-n-kjpaw_psl.1.0.0.UPF: wavefunction(s)  4S renormalized
     Message from routine setup:
     using ibrav=0 with symmetry is DISCOURAGED, use correct ibrav instead

     Subspace diagonalization in iterative solution of the eigenvalue problem:
     a serial algorithm will be used

     Using Slab Decomposition

     Title:
     Relax of MoSe2 Pristine Unitcell

     bravais-lattice index     =            0
     lattice parameter (alat)  =       6.2954  a.u.
     unit-cell volume          =     537.7360 (a.u.)^3
     number of atoms/cell      =            3
     number of atomic types    =            2
     number of electrons       =        26.00
     number of Kohn-Sham states=           17
     kinetic-energy cutoff     =      70.0000  Ry
     charge density cutoff     =     700.0000  Ry
     scf convergence threshold =      1.0E-10
     mixing beta               =       0.4000
     number of iterations used =            8  plain     mixing
     energy convergence thresh.=      1.0E-06
     force convergence thresh. =      1.0E-06
     Exchange-correlation= SLA  PW   PBX  PBC
                           (   1   4   3   4   0   0   0)
     nstep                     =          200

     celldm(1)=   6.295389  celldm(2)=   0.000000  celldm(3)=   0.000000
     celldm(4)=   0.000000  celldm(5)=   0.000000  celldm(6)=   0.000000

     crystal axes: (cart. coord. in units of alat)
               a(1) = (   1.000000   0.000000   0.000000 )
               a(2) = (  -0.500000   0.866025   0.000000 )
               a(3) = (   0.000000   0.000000   2.488689 )

     reciprocal axes: (cart. coord. in units 2 pi/alat)
               b(1) = (  1.000000  0.577350 -0.000000 )
               b(2) = (  0.000000  1.154701  0.000000 )
               b(3) = (  0.000000 -0.000000  0.401818 )

     PseudoPot. # 1 for Mo read from file:
     ./pseudo/Mo.pbe-spn-kjpaw_psl.1.0.0.UPF
     MD5 check sum: 4396e0c640fcce5c25f020efccf1ab12
     Pseudo is Projector augmented-wave + core cor, Zval = 14.0
     Generated using &quot;atomic&quot; code by A. Dal Corso  v.6.3
     Shape of augmentation charge: PSQ
     Using radial grid of 1229 points,  6 beta functions with:
                l(1) =   0
                l(2) =   0
                l(3) =   1
                l(4) =   1
                l(5) =   2
                l(6) =   2
     Q(r) pseudized with 0 coefficients

     PseudoPot. # 2 for Se read from file:
     ./pseudo/Se.pbe-n-kjpaw_psl.1.0.0.UPF
     MD5 check sum: 12232cb78b362a7b0fca8da9cb95fd5e
     Pseudo is Projector augmented-wave + core cor, Zval =  6.0
     Generated using &quot;atomic&quot; code by A. Dal Corso  v.6.3
     Shape of augmentation charge: PSQ
     Using radial grid of 1211 points,  4 beta functions with:
                l(1) =   0
                l(2) =   0
                l(3) =   1
                l(4) =   1
     Q(r) pseudized with 0 coefficients

     atomic species   valence    mass     pseudopotential
     Mo               14.00    95.96000     Mo( 1.00)
     Se                6.00    78.96000     Se( 1.00)

     12 Sym. Ops. (no inversion) found ( 6 have fractional translation)

   Cartesian axes

     site n.     atom                  positions (alat units)
         1        Mo     tau(   1) = (  -0.0000000   0.5773503   0.6221722  )
         2        Se     tau(   2) = (   0.5000000   0.2886751   1.1198825  )
         3        Se     tau(   3) = (   0.5000000   0.2886751   0.1244620  )

     number of k points=     6  Gaussian smearing, width (Ry)=  0.0100
                       cart. coord. in units 2pi/alat
        k(    1) = (   0.0000000   0.0000000   0.0000000), wk =   0.1111111
        k(    2) = (   0.0000000   0.0000000  -0.2009090), wk =   0.1111111
        k(    3) = (   0.0000000   0.3849002   0.0000000), wk =   0.6666667
        k(    4) = (   0.0000000   0.3849002  -0.2009090), wk =   0.6666667
        k(    5) = (   0.3333333   0.5773503   0.0000000), wk =   0.2222222
        k(    6) = (   0.3333333   0.5773503  -0.2009090), wk =   0.2222222

     Initial potential from superposition of free atoms

     starting charge      25.9990, renormalised to      26.0000
     Starting wfcs are   18 randomized atomic wfcs
     Checking if some PAW data can be deallocated...

     Self-consistent Calculation

     iteration #  1     ecut=    70.00 Ry     beta= 0.40
     Davidson diagonalization with overlap
     ethr =  1.00E-02,  avg # of iterations =  2.0

     Threshold (ethr) on eigenvalues was too large:
     Diagonalizing with lowered threshold

     Davidson diagonalization with overlap
     ethr =  9.62E-04,  avg # of iterations =  1.0

     total energy              =    -742.61561651 Ry
     estimated scf accuracy    <       0.26218529 Ry

[...]

     End of self-consistent calculation

          k = 0.0000 0.0000 0.0000 (  5375 PWs)   bands (ev):

   -54.2260 -28.4313 -28.1893 -28.1893  -7.6662  -6.6565   1.1132   4.4050
     4.4050   4.9110   5.3390   5.3390   6.2179   9.3224   9.3224   9.5715
     9.5715

[...]

     the Fermi energy is     7.2723 ev

!    total energy              =    -742.71993980 Ry
     total all-electron energy =    -17818.571482 Ry
     estimated scf accuracy    <          2.4E-11 Ry
     smearing contrib. (-TS)   =      -0.00000000 Ry
     internal energy E=F+TS    =    -742.71993980 Ry

     The total energy is F=E-TS. E is the sum of the following terms:
     one-electron contribution =    -179.59969524 Ry
     hartree contribution      =      99.45831206 Ry
     xc contribution           =     -32.38044319 Ry
     ewald contribution        =     -63.95647075 Ry
     one-center paw contrib.   =    -566.24164269 Ry

     convergence has been achieved in  12 iterations

     Forces acting on atoms (cartesian axes, Ry/au):

     atom    1 type  1   force =     0.00000000   -0.00000000    0.00000000
     atom    2 type  2   force =     0.00000000   -0.00000000    0.00001280
     atom    3 type  2   force =     0.00000000    0.00000000   -0.00001280

     Total force =     0.000018     Total SCF correction =     0.000013
     SCF correction compared to forces is large: reduce conv_thr to get better values

     BFGS Geometry Optimization
     Energy error            =      3.3E-10 Ry
     Gradient error          =      1.3E-05 Ry/Bohr

     number of scf cycles    =   1
     number of bfgs steps    =   0

     energy             new  =    -742.7199397965 Ry

     new trust radius        =       0.0000128045 bohr
     new conv_thr            =            1.0E-10 Ry

ATOMIC_POSITIONS (crystal)
Mo               0.3333333433        0.6666666865        0.2500000000
Se               0.6666666865        0.3333333433        0.4499897486
Se               0.6666666865        0.3333333433        0.0500102663

     Writing config-only to output data dir ./out/unitcell.save/ :
     XML data file
     NEW-OLD atomic charge density approx. for the potential

[...]

     Total force =     0.000008     Total SCF correction =     0.000000
     Energy error            =      1.8E-10 Ry
     Gradient error          =      5.4E-06 Ry/Bohr

[...]

     energy             old  =    -742.7199397965 Ry
     energy             new  =    -742.7199397967 Ry

     CASE: energy            _new < energy            _old

     small trust_radius: resetting bfgs history

[...]

     Total force =     0.000005     Total SCF correction =     0.000001
     SCF correction compared to forces is large: reduce conv_thr to get better values
     Energy error            =      3.0E-11 Ry
     Gradient error          =      3.3E-06 Ry/Bohr

     number of scf cycles    =   3
     number of bfgs steps    =   2

     energy             old  =    -742.7199397967 Ry
     energy             new  =    -742.7199397967 Ry

     CASE: energy            _new < energy            _old

     Message from routine bfgs :: compute_trust_radius:
     history already reset at previous step: stopping
     small trust_radius: resetting bfgs history

     new trust radius        =       0.0000032755 bohr
     new conv_thr            =            1.0E-12 Ry

ATOMIC_POSITIONS (crystal)
Mo               0.3333333433        0.6666666865        0.2500000000
Se               0.6666666865        0.3333333433        0.4499903041
Se               0.6666666865        0.3333333433        0.0500097108

     Writing config-only to output data dir ./out/unitcell.save/ :
     XML data file
     NEW-OLD atomic charge density approx. for the potential

     Self-consistent Calculation

[...]

     Threshold (ethr) on eigenvalues was too large:
     Diagonalizing with lowered threshold

     Davidson diagonalization with overlap
     ethr =  1.79E-14,  avg # of iterations =  3.2

[...]

     total energy              =    -742.71993980 Ry
     estimated scf accuracy    <          5.5E-12 Ry

     iteration #  3     ecut=    70.00 Ry     beta= 0.40
     Davidson diagonalization with overlap
     ethr =  1.00E-13,  avg # of iterations =  1.0

     End of self-consistent calculation

[...]

          k = 0.3333 0.5774-0.2009 (  5310 PWs)   bands (ev):

   -54.2031 -28.3770 -28.3658 -28.3369  -5.7326  -5.6153   1.5362   2.0241
     2.5845   3.1441   3.5668   4.3860   6.6114   7.9765   9.1016   9.6943
    10.7903

     the Fermi energy is     7.2723 ev

!    total energy              =    -742.71993980 Ry
     total all-electron energy =    -17818.571482 Ry
     estimated scf accuracy    <          5.9E-14 Ry
     smearing contrib. (-TS)   =      -0.00000000 Ry
     internal energy E=F+TS    =    -742.71993980 Ry

     The total energy is F=E-TS. E is the sum of the following terms:
     one-electron contribution =    -179.59816059 Ry
     hartree contribution      =      99.45757495 Ry
     xc contribution           =     -32.38042839 Ry
     ewald contribution        =     -63.95728513 Ry
     one-center paw contrib.   =    -566.24164065 Ry

     convergence has been achieved in   3 iterations

     Forces acting on atoms (cartesian axes, Ry/au):

     atom    1 type  1   force =     0.00000000    0.00000000    0.00000000
     atom    2 type  2   force =     0.00000000    0.00000000    0.00000228
     atom    3 type  2   force =     0.00000000    0.00000000   -0.00000228

     Total force =     0.000003     Total SCF correction =     0.000000
     Message from routine bfgs:
     history already reset at previous step: exiting
     Energy error            =      2.2E-11 Ry
     Gradient error          =      2.3E-06 Ry/Bohr

     bfgs failed after   4 scf cycles and   3 bfgs steps, convergence not achieved
     (criteria: energy <  1.0E-06 Ry, force <  1.0E-06 Ry/Bohr)

     End of BFGS Geometry Optimization

     Final energy             =    -742.7199397967 Ry

     File ./out/unitcell.bfgs deleted, as requested
Begin final coordinates

ATOMIC_POSITIONS (crystal)
Mo               0.3333333433        0.6666666865        0.2500000000
Se               0.6666666865        0.3333333433        0.4499903041
Se               0.6666666865        0.3333333433        0.0500097108
End final coordinates

     Writing all to output data dir ./out/unitcell.save/ :
     XML data file, charge density, pseudopotentials, collected wavefunctions

     General routines

     Parallel routines

   This run was terminated on:  20: 6:12   2Jun2025

   JOB DONE.