     Program PWSCF v.7.4.1 starts on 30May2025 at 15:29:32

     Waiting for input...
     Reading input from standard input

     Current dimensions of program PWSCF are:
     Max number of different atomic species (ntypx) = 10
     Max number of k-points (npk) =  40000
     Max angular momentum in pseudopotentials (lmaxx) =  4
     file Mo.pbe-spn-kjpaw_psl.1.0.0.UPF: wavefunction(s)  4S 4D renormalized
     file Se.pbe-n-kjpaw_psl.1.0.0.UPF: wavefunction(s)  4S renormalized
     Message from routine setup:
     using ibrav=0 with symmetry is DISCOURAGED, use correct ibrav instead

     Subspace diagonalization in iterative solution of the eigenvalue problem:
     a serial algorithm will be used

     Using Slab Decomposition

     Title:
     VC Relax of MoSe2 Pristine Unitcell

     bravais-lattice index     =            0
     lattice parameter (alat)  =       6.2782  a.u.
     unit-cell volume          =     873.5907 (a.u.)^3
     number of atoms/cell      =            3
     number of atomic types    =            2
     number of electrons       =        26.00
     number of Kohn-Sham states=           17
     kinetic-energy cutoff     =      70.0000  Ry
     charge density cutoff     =     700.0000  Ry
     scf convergence threshold =      1.0E-10
     mixing beta               =       0.4000
     number of iterations used =            8  plain     mixing
     energy convergence thresh.=      1.0E-06
     force convergence thresh. =      1.0E-06
     press convergence thresh. =      5.0E-01
     Exchange-correlation= SLA  PW   PBX  PBC
                           (   1   4   3   4   0   0   0)
     nstep                     =          200

     celldm(1)=   6.278162  celldm(2)=   0.000000  celldm(3)=   0.000000
     celldm(4)=   0.000000  celldm(5)=   0.000000  celldm(6)=   0.000000

     crystal axes: (cart. coord. in units of alat)
               a(1) = (   1.000000   0.000000   0.000000 )
               a(2) = (  -0.500000   0.866025   0.000000 )
               a(3) = (   0.000000   0.000000   4.076429 )

     reciprocal axes: (cart. coord. in units 2 pi/alat)
               b(1) = (  1.000000  0.577350 -0.000000 )
               b(2) = (  0.000000  1.154701  0.000000 )
               b(3) = (  0.000000 -0.000000  0.245313 )

     PseudoPot. # 1 for Mo read from file:
     ./pseudo/Mo.pbe-spn-kjpaw_psl.1.0.0.UPF
     MD5 check sum: 4396e0c640fcce5c25f020efccf1ab12
     Pseudo is Projector augmented-wave + core cor, Zval = 14.0
     Generated using &quot;atomic&quot; code by A. Dal Corso  v.6.3
     Shape of augmentation charge: PSQ
     Using radial grid of 1229 points,  6 beta functions with:
                l(1) =   0
                l(2) =   0
                l(3) =   1
                l(4) =   1
                l(5) =   2
                l(6) =   2
     Q(r) pseudized with 0 coefficients

     PseudoPot. # 2 for Se read from file:
     ./pseudo/Se.pbe-n-kjpaw_psl.1.0.0.UPF
     MD5 check sum: 12232cb78b362a7b0fca8da9cb95fd5e
     Pseudo is Projector augmented-wave + core cor, Zval =  6.0
     Generated using &quot;atomic&quot; code by A. Dal Corso  v.6.3
     Shape of augmentation charge: PSQ
     Using radial grid of 1211 points,  4 beta functions with:
                l(1) =   0
                l(2) =   0
                l(3) =   1
                l(4) =   1
     Q(r) pseudized with 0 coefficients

     atomic species   valence    mass     pseudopotential
     Mo               14.00    95.96000     Mo( 1.00)
     Se                6.00    78.96000     Se( 1.00)

     12 Sym. Ops. (no inversion) found ( 6 have fractional translation)

   Cartesian axes

     site n.     atom                  positions (alat units)
         1        Mo     tau(   1) = (   0.0000000   0.5773503   1.0191072  )
         2        Se     tau(   2) = (   0.5000000   0.2886751   1.5173378  )
         3        Se     tau(   3) = (   0.5000000   0.2886751   0.5208766  )

     number of k points=     6  Gaussian smearing, width (Ry)=  0.0100
                       cart. coord. in units 2pi/alat
        k(    1) = (   0.0000000   0.0000000   0.0000000), wk =   0.1111111
        k(    2) = (   0.0000000   0.0000000  -0.1226564), wk =   0.1111111
        k(    3) = (   0.0000000   0.3849002   0.0000000), wk =   0.6666667
        k(    4) = (   0.0000000   0.3849002  -0.1226564), wk =   0.6666667
        k(    5) = (   0.3333333   0.5773503   0.0000000), wk =   0.2222222
        k(    6) = (   0.3333333   0.5773503  -0.1226564), wk =   0.2222222

     Initial potential from superposition of free atoms

     starting charge      25.9990, renormalised to      26.0000

     negative rho (up, down):  7.894E-06 0.000E+00
     Starting wfcs are   18 randomized atomic wfcs
     Checking if some PAW data can be deallocated...

     Self-consistent Calculation

     iteration #  1     ecut=    70.00 Ry     beta= 0.40
     Davidson diagonalization with overlap
     ethr =  1.00E-02,  avg # of iterations =  2.0

     Threshold (ethr) on eigenvalues was too large:
     Diagonalizing with lowered threshold

     Davidson diagonalization with overlap
     ethr =  9.71E-04,  avg # of iterations =  1.0

     negative rho (up, down):  7.705E-06 0.000E+00

     total energy              =    -742.61249768 Ry
     estimated scf accuracy    <       0.26788282 Ry

[...]

     End of self-consistent calculation

          k = 0.0000 0.0000 0.0000 (  8703 PWs)   bands (ev):

   -58.7651 -32.9778 -32.7277 -32.7277 -12.2528 -11.2396  -3.4267  -0.1566
    -0.1566   0.1546   0.7866   0.7866   1.7709   4.7971   4.7971   5.0586
     5.0586

[...]

     the Fermi energy is     2.6952 ev

!    total energy              =    -742.71962712 Ry
     total all-electron energy =    -17818.571170 Ry
     estimated scf accuracy    <          5.3E-11 Ry
     smearing contrib. (-TS)   =      -0.00000000 Ry
     internal energy E=F+TS    =    -742.71962712 Ry

     The total energy is F=E-TS. E is the sum of the following terms:
     one-electron contribution =    -527.68957832 Ry
     hartree contribution      =     269.15727466 Ry
     xc contribution           =     -32.39578669 Ry
     ewald contribution        =     114.45167059 Ry
     one-center paw contrib.   =    -566.24320736 Ry

     convergence has been achieved in  12 iterations

[...]

     Forces acting on atoms (cartesian axes, Ry/au):

     atom    1 type  1   force =     0.00000000   -0.00000000    0.00000000
     atom    2 type  2   force =     0.00000000    0.00000000    0.00361575
     atom    3 type  2   force =    -0.00000000    0.00000000   -0.00361575

     Total force =     0.005113     Total SCF correction =     0.000019

     Computing stress (Cartesian axis) and pressure

     negative rho (up, down):  8.667E-06 0.000E+00
          total   stress  (Ry/bohr**3)                   (kbar)     P=        3.89
   0.00002792  -0.00000000   0.00000000            4.11       -0.00        0.00
  -0.00000000   0.00002792   0.00000000           -0.00        4.11        0.00
   0.00000000   0.00000000   0.00002356            0.00        0.00        3.47

     BFGS Geometry Optimization
     Energy error            =      7.2E-05 Ry
     Gradient error          =      3.6E-03 Ry/Bohr
     Cell gradient error     =      4.1E+00 kbar

     number of scf cycles    =   1
     number of bfgs steps    =   0

     enthalpy           new  =    -742.7196271207 Ry

     new trust radius        =       0.0041261059 bohr
     new conv_thr            =            1.0E-10 Ry

     new unit-cell volume =    875.32584 a.u.^3 (   129.70991 Ang^3 )
     density =      3.25016 g/cm^3

CELL_PARAMETERS (angstrom)
   3.324579084  -0.000000000   0.000000000
  -1.662289542   2.879169944   0.000000000
   0.000000000   0.000000000  13.550932479

ATOMIC_POSITIONS (crystal)
Mo               0.3333333433        0.6666666865        0.2500000000
Se               0.6666666865        0.3333333433        0.3723636161
Se               0.6666666865        0.3333333433        0.1276363988

     Writing config-only to output data dir ./out/unitcell.save/ :
     XML data file
     NEW-OLD atomic charge density approx. for the potential
     New effective cutoffs (rho, wfc):  699.08   69.90

[...]

     Energy error            =      5.3E-05 Ry
     Gradient error          =      1.3E-03 Ry/Bohr
     Cell gradient error     =      2.5E+00 kbar

[...]

     enthalpy           old  =    -742.7196271207 Ry
     enthalpy           new  =    -742.7196801031 Ry

     CASE: enthalpy          _new < enthalpy          _old

[...]

          k =-0.0000 0.0000-0.1226 (  8684 PWs)   bands (ev):

[...]

     negative rho (up, down):  1.354E-07 0.000E+00
          total   stress  (Ry/bohr**3)                   (kbar)     P=        0.74
   0.00000332  -0.00000000  -0.00000000            0.49       -0.00       -0.00
  -0.00000000   0.00000332  -0.00000000           -0.00        0.49       -0.00
  -0.00000000  -0.00000000   0.00000843           -0.00       -0.00        1.24

[...]

     negative rho (up, down):  1.069E-08 0.000E+00

[...]

          total   stress  (Ry/bohr**3)                   (kbar)     P=        1.21
   0.00000500  -0.00000000  -0.00000000            0.74       -0.00       -0.00
  -0.00000000   0.00000500  -0.00000000           -0.00        0.74       -0.00
  -0.00000000  -0.00000000   0.00001474           -0.00       -0.00        2.17

[...]

     CASE: enthalpy          _new > enthalpy          _old

[...]

     CASE: enthalpy          _new > enthalpy          _old

[...]

     Total force =     0.000139     Total SCF correction =     0.000011

[...]

     Total force =     0.000021     Total SCF correction =     0.000007
     SCF correction compared to forces is large: reduce conv_thr to get better values

[...]

     WARNING: bfgs curvature condition failed, Theta= 0.995
     new trust radius        =       0.0039561425 bohr
     new conv_thr            =            1.0E-12 Ry

[...]

     small trust_radius: resetting bfgs history

[...]

     Energy error            =      2.3E-10 Ry
     Gradient error          =      3.4E-06 Ry/Bohr
     Cell gradient error     =      6.8E-03 kbar

     number of scf cycles    =  48
     number of bfgs steps    =  44

     enthalpy           old  =    -742.7203817516 Ry
     enthalpy           new  =    -742.7203817519 Ry

     CASE: enthalpy          _new < enthalpy          _old

     Message from routine bfgs :: compute_trust_radius:
     history already reset at previous step: stopping
     small trust_radius: resetting bfgs history

     new trust radius        =       0.0000053678 bohr
     new conv_thr            =            1.0E-12 Ry

     new unit-cell volume =    537.73595 a.u.^3 (    79.68425 Ang^3 )
     density =      5.29060 g/cm^3

[...]

ATOMIC_POSITIONS (crystal)
Mo               0.3333333433        0.6666666865        0.2500000000
Se               0.6666666865        0.3333333433        0.4499889313
Se               0.6666666865        0.3333333433        0.0500110836

     Writing config-only to output data dir ./out/unitcell.save/ :
     XML data file
     NEW-OLD atomic charge density approx. for the potential
     New effective cutoffs (rho, wfc): 1850.67  186.07

     Self-consistent Calculation

[...]

     Threshold (ethr) on eigenvalues was too large:
     Diagonalizing with lowered threshold

     Davidson diagonalization with overlap
     ethr =  2.96E-14,  avg # of iterations =  3.5

[...]

     total energy              =    -742.72038175 Ry
     estimated scf accuracy    <          1.7E-11 Ry

     iteration #  3     ecut=    70.00 Ry     beta= 0.40
     Davidson diagonalization with overlap
     ethr =  1.00E-13,  avg # of iterations =  1.0

     End of self-consistent calculation

[...]

          k =-0.0000 0.3838-0.2004 (  8636 PWs)   bands (ev):

[...]

          k = 0.3324 0.5758-0.2004 (  8628 PWs)   bands (ev):

   -54.2040 -28.3770 -28.3657 -28.3368  -5.7326  -5.6153   1.5362   2.0241
     2.5845   3.1441   3.5667   4.3859   6.6114   7.9762   9.1015   9.6943
    10.7901

     the Fermi energy is     7.2720 ev

!    total energy              =    -742.72038175 Ry
     total all-electron energy =    -17818.571924 Ry
     estimated scf accuracy    <          1.3E-13 Ry
     smearing contrib. (-TS)   =      -0.00000000 Ry
     internal energy E=F+TS    =    -742.72038175 Ry

     The total energy is F=E-TS. E is the sum of the following terms:
     one-electron contribution =    -179.60058139 Ry
     hartree contribution      =      99.45867677 Ry
     xc contribution           =     -32.38059087 Ry
     ewald contribution        =     -63.95647073 Ry
     one-center paw contrib.   =    -566.24141553 Ry

     convergence has been achieved in   3 iterations

     Forces acting on atoms (cartesian axes, Ry/au):

     atom    1 type  1   force =     0.00000000   -0.00000000    0.00000000
     atom    2 type  2   force =    -0.00000000   -0.00000000    0.00000140
     atom    3 type  2   force =     0.00000000   -0.00000000   -0.00000140

     Total force =     0.000002     Total SCF correction =     0.000000
     SCF correction compared to forces is large: reduce conv_thr to get better values

     Computing stress (Cartesian axis) and pressure

          total   stress  (Ry/bohr**3)                   (kbar)     P=       -0.00
  -0.00000002   0.00000000   0.00000000           -0.00        0.00        0.00
   0.00000000  -0.00000002   0.00000000            0.00       -0.00        0.00
   0.00000000   0.00000000   0.00000003            0.00        0.00        0.00

     Message from routine bfgs:
     history already reset at previous step: exiting
     Energy error            =      3.2E-11 Ry
     Gradient error          =      1.4E-06 Ry/Bohr
     Cell gradient error     =      3.7E-03 kbar

     bfgs failed after  49 scf cycles and  45 bfgs steps, convergence not achieved
     (criteria: energy <  1.0E-06 Ry, force <  1.0E-06 Ry/Bohr, cell <  5.0E-01 kbar)

     End of BFGS Geometry Optimization

     Final enthalpy           =    -742.7203817519 Ry

     File ./out/unitcell.bfgs deleted, as requested
Begin final coordinates
     new unit-cell volume =    537.73595 a.u.^3 (    79.68425 Ang^3 )
     density =      5.29060 g/cm^3

CELL_PARAMETERS (angstrom)
   3.331376651   0.000000000   0.000000000
  -1.665688326   2.885056809   0.000000000
   0.000000000   0.000000000   8.290760419

ATOMIC_POSITIONS (crystal)
Mo               0.3333333433        0.6666666865        0.2500000000
Se               0.6666666865        0.3333333433        0.4499889313
Se               0.6666666865        0.3333333433        0.0500110836
End final coordinates

     Writing config-only to output data dir ./out/unitcell.save/ :
     XML data file

     Writing all to output data dir ./out/unitcell.save/ :
     XML data file, charge density, pseudopotentials, collected wavefunctions

     General routines

     Parallel routines

   This run was terminated on:  16:11:12  30May2025

   JOB DONE.